s td 104 11 136
b 1 4 26 108
b 2 6 32 39
b 3 7 14 129
b 4 11 72 81
b 5 15 111 132
b 6 19 69 129
b 7 20 54 117
b 8 25 98 136
b 9 27 121 136
b 10 30 67 114
b 11 31 43 78
b 12 40 55 83
b 13 41 62 74
b 14 45 83 92
b 15 26 46 52
b 16 10 50 82
b 17 60 63 94
b 18 9 44 61
b 19 22 34 64
b 20 34 80 118
b 21 10 42 99
b 22 2 36 85
b 23 89 95 100
b 24 81 90 115
b 25 63 75 111
b 26 95 97 125
b 27 26 102 116
b 28 56 109 117
b 29 42 119 124
b 30 18 56 97
b 31 86 113 126
b 32 17 42 128
b 33 69 129
b 34 56 69 88
b 35 16 53 130
b 36 44 91 131
b 37 22 34 118
b 38 17 42 99
b 39 9 44 91
b 40 9 68 91 113
b 41 8 16 53
b 42 8 16 67 134
b 43 16 67 112 134
b 44 67 112 134
b 45 39 59 104 135
b 46 48 68 91 113
b 47 17 33 43 99
b 48 18 56 77 120
b 49 12 56 77 88
b 50 22 35 86 118
b 51 2 36 122 123
b 52 1 3 23 24 26 43 56 76 77 101
b 53 3 23 24 26 43 56 71 76 77 101 122
b 54 3 23 24 26 56 71 74 77 101 122
b 55 3 13 23 24 56 71 74 77 101 122
b 56 13 23 24 51 56 74 77 101 118 122
b 57 23 29 51 56 74 77 101 118 122
b 58 23 29 56 74 93 101 118 122
b 59 56 74 93 101 113 118 122 123
b 60 2 56 74 113 118 122 123
b 61 2 35 56 113 118
b 62 35 86 113 118
b 63 2 35 56 109
b 64 2 74 113 123 127
b 65 68 93 101 113 123
b 66 48 68 101 113 123
b 67 13 24 51 57 118
b 68 23 26 38 43 71 76 122
b 69 23 38 39 43 71 76
b 70 23 38 39 70 76 96
b 71 23 38 58 70 96
b 72 23 38 49 58 70
b 73 23 49 58 83 106
b 74 5 23 49 83 106
b 75 39 70 76 87 96
b 76 37 39 70 76 87
b 77 39 43 71 78
b 78 1 3 23 24 26 33 43 56 76 77
b 79 1 3 24 26 33 56 76 77 111
b 80 12 56 76 77 111
b 81 1 3 26 65 76 111
b 82 3 26 28 65 111
b 83 3 24 26 33 73 76 111
b 84 3 24 73 76 103
b 85 26 33 73 107 111
b 86 23 33 43 56 76 77 120
b 87 23 33 43 76 84 120
b 88 33 43 76 84 99
b 89 2 35 47 109
b 90 3 26 52 74
b 91 62 74 123 127
b 92 2 66 113 127
b 93 12 75 76 111
b 94 26 28 108 111
b 95 23 105 112 134
b 96 26 38 116 122
b 97 21 23 81 105 134
b 98 5 21 23 81 105
b 99 5 23 81 105 106
b 100 39 79 104 110 135
b 101 39 79 110 133 135
b 102 37 39 79 133 136
b 103 37 39 87 133 136
b 104 37 39 87 136
1 94
2 69
3 33
4 97
5 79
6 33
7 28
8 102
9 102
10 44
11 77
12 73
13 91
14 73
15 90
16 21
17 25
18 39
19 37
20 37
21 38
22 51
23 26
24 97
25 93
26 30
27 96
28 63
29 38
30 48
31 62
32 38
33 34
34 49
35 41
36 39
37 50
38 47
39 40
40 46
41 42
42 43
43 44
44 95
45 100
46 66
47 88
48 86
49 80
50 62
51 60
52 53
52 78
53 54
53 68
54 90
54 55
55 56
56 57
56 67
57 58
58 59
59 60
59 65
60 61
60 64
61 62
61 63
63 89
64 91
64 92
65 66
68 96
68 69
69 70
69 77
70 71
70 75
71 72
72 73
73 74
74 99
75 76
76 103
78 79
78 86
79 80
79 81
79 83
80 93
81 82
82 94
83 84
83 85
86 87
87 88
95 97
97 98
98 99
100 101
101 102
102 103
103 104
